Test: chnl10_12.cnf
Options: -no-inverting-opt -activity-look-freq=1
WARNING: for repeatability, setting FPU to use double precision
============================[ Problem Statistics ]=============================
|                                                                             |
|  Number of symmetries:           41                                         |
|  Number of invertingSyms:         0                                         |
|  Number of variables:           240                                         |
|  Number of clauses:            1344                                         |
|  Parse time:                   0.00 s                                       |
|                                                                             |
============================[ Search Statistics ]==============================
| Conflicts |          ORIGINAL         |          LEARNT          | Progress |
|           |    Vars  Clauses Literals |    Limit  Clauses Lit/Cl |          |
===============================================================================
===============================================================================
restarts              : 1
conflicts             : 24             (inf /sec)
symconflicts          : 10             (inf /sec)
decisions             : 60             (0.00 % random) (inf /sec)
propagations          : 1084           (inf /sec)
sympropagations       : 68             (inf /sec)
conflict literals     : 650            (0.76 % deleted)
literals     : 650            (0.76 % deleted)

HEURISTIC USAGES
random                : 0           
activity w/ lookahead : 60          
activity no lookahead : 0           
original sp           : 0           
sym count             : 0           

Memory used           : 6.00 MB
CPU time              : 0 s

UNSATISFIABLE
